\ LP format - for model browsing. Use MPS format to capture full model detail.
Minimize
  0.8 X[0,0] + 0.8 X[0,1] + 0.8 X[0,2] + 0.8 X[0,3] + 0.8 X[0,4]
   + 0.8 X[0,5] + X[1,0] + X[1,1] + X[1,2] + X[1,3] + X[1,4] + X[1,5]
   + 0.9 X[2,0] + 0.9 X[2,1] + 0.9 X[2,2] + 0.9 X[2,3] + 0.9 X[2,4]
   + 0.9 X[2,5] + 0.05 E[0,0] + 0.05 E[0,1] + 0.05 E[0,2] + 0.05 E[0,3]
   + 0.05 E[0,4] + 0.05 E[0,5] + 0.07 E[1,0] + 0.07 E[1,1] + 0.07 E[1,2]
   + 0.07 E[1,3] + 0.07 E[1,4] + 0.07 E[1,5] + 0.1 E[2,0] + 0.1 E[2,1]
   + 0.1 E[2,2] + 0.1 E[2,3] + 0.1 E[2,4] + 0.1 E[2,5]
Subject To
 R0: X[0,0] <= 540
 R1: X[1,0] <= 180
 R2: X[2,0] <= 360
 R3: X[0,0] + X[1,0] + X[2,0] >= 68
 R4: - E[0,0] + P[0,0,0] = 0
 R5: P[0,0,0] <= 300
 R6: X[0,0] + P[0,0,0] <= 368
 R7: P[0,0,1] <= 300
 R8: X[0,0] + P[0,0,1] <= 368
 R9: P[0,0,2] <= 300
 R10: X[0,0] + P[0,0,2] <= 368
 R11: P[0,0,3] <= 300
 R12: P[0,0,4] <= 300
 R13: P[0,0,5] <= 300
 R14: - E[1,0] + P[1,0,0] = 0
 R15: P[1,0,0] <= 300
 R16: X[1,0] + P[1,0,0] <= 368
 R17: P[1,0,1] <= 300
 R18: X[1,0] + P[1,0,1] <= 368
 R19: P[1,0,2] <= 300
 R20: X[1,0] + P[1,0,2] <= 368
 R21: P[1,0,3] <= 300
 R22: P[1,0,4] <= 300
 R23: P[1,0,5] <= 300
 R24: - E[2,0] + P[2,0,0] = 0
 R25: P[2,0,0] <= 300
 R26: X[2,0] + P[2,0,0] <= 368
 R27: P[2,0,1] <= 300
 R28: X[2,0] + P[2,0,1] <= 368
 R29: P[2,0,2] <= 300
 R30: X[2,0] + P[2,0,2] <= 368
 R31: P[2,0,3] <= 300
 R32: P[2,0,4] <= 300
 R33: P[2,0,5] <= 300
 R34: X[0,1] <= 360
 R35: X[1,1] <= 360
 R36: X[2,1] <= 540
 R37: X[0,1] + X[1,1] + X[2,1] >= 264
 R38: P[0,1,0] <= 300
 R39: - E[0,1] + P[0,1,1] = 0
 R40: P[0,1,1] <= 300
 R41: X[0,1] + P[0,1,1] <= 564
 R42: P[0,1,2] <= 300
 R43: X[0,1] + P[0,1,2] <= 564
 R44: P[0,1,3] <= 300
 R45: X[0,1] + P[0,1,3] <= 564
 R46: P[0,1,4] <= 300
 R47: P[0,1,5] <= 300
 R48: P[1,1,0] <= 300
 R49: - E[1,1] + P[1,1,1] = 0
 R50: P[1,1,1] <= 300
 R51: X[1,1] + P[1,1,1] <= 564
 R52: P[1,1,2] <= 300
 R53: X[1,1] + P[1,1,2] <= 564
 R54: P[1,1,3] <= 300
 R55: X[1,1] + P[1,1,3] <= 564
 R56: P[1,1,4] <= 300
 R57: P[1,1,5] <= 300
 R58: P[2,1,0] <= 300
 R59: - E[2,1] + P[2,1,1] = 0
 R60: P[2,1,1] <= 300
 R61: X[2,1] + P[2,1,1] <= 564
 R62: P[2,1,2] <= 300
 R63: X[2,1] + P[2,1,2] <= 564
 R64: P[2,1,3] <= 300
 R65: X[2,1] + P[2,1,3] <= 564
 R66: P[2,1,4] <= 300
 R67: P[2,1,5] <= 300
 R68: X[0,2] <= 360
 R69: X[1,2] <= 360
 R70: X[2,2] <= 540
 R71: X[0,2] + X[1,2] + X[2,2] >= 462
 R72: P[0,2,0] <= 300
 R73: - E[0,2] - P[0,2,0] + P[0,2,1] = 0
 R74: P[0,2,1] <= 300
 R75: - E[0,2] + P[0,2,2] = 0
 R76: P[0,2,2] <= 300
 R77: X[0,2] + P[0,2,2] <= 762
 R78: P[0,2,3] <= 300
 R79: X[0,2] + P[0,2,3] <= 762
 R80: P[0,2,4] <= 300
 R81: X[0,2] + P[0,2,4] <= 762
 R82: P[0,2,5] <= 300
 R83: P[1,2,0] <= 300
 R84: - E[1,2] - P[1,2,0] + P[1,2,1] = 0
 R85: P[1,2,1] <= 300
 R86: - E[1,2] + P[1,2,2] = 0
 R87: P[1,2,2] <= 300
 R88: X[1,2] + P[1,2,2] <= 762
 R89: P[1,2,3] <= 300
 R90: X[1,2] + P[1,2,3] <= 762
 R91: P[1,2,4] <= 300
 R92: X[1,2] + P[1,2,4] <= 762
 R93: P[1,2,5] <= 300
 R94: P[2,2,0] <= 300
 R95: - E[2,2] - P[2,2,0] + P[2,2,1] = 0
 R96: P[2,2,1] <= 300
 R97: - E[2,2] + P[2,2,2] = 0
 R98: P[2,2,2] <= 300
 R99: X[2,2] + P[2,2,2] <= 762
 R100: P[2,2,3] <= 300
 R101: X[2,2] + P[2,2,3] <= 762
 R102: P[2,2,4] <= 300
 R103: X[2,2] + P[2,2,4] <= 762
 R104: P[2,2,5] <= 300
 R105: X[0,3] <= 720
 R106: X[1,3] <= 360
 R107: X[2,3] <= 180
 R108: X[0,3] + X[1,3] + X[2,3] >= 540
 R109: P[0,3,0] <= 300
 R110: - E[0,3] - P[0,3,0] + P[0,3,1] = 0
 R111: P[0,3,1] <= 300
 R112: - E[0,3] - P[0,3,1] + P[0,3,2] = 0
 R113: P[0,3,2] <= 300
 R114: - E[0,3] + P[0,3,3] = 0
 R115: P[0,3,3] <= 300
 R116: X[0,3] + P[0,3,3] <= 840
 R117: P[0,3,4] <= 300
 R118: X[0,3] + P[0,3,4] <= 840
 R119: P[0,3,5] <= 300
 R120: X[0,3] + P[0,3,5] <= 840
 R121: P[1,3,0] <= 300
 R122: - E[1,3] - P[1,3,0] + P[1,3,1] = 0
 R123: P[1,3,1] <= 300
 R124: - E[1,3] - P[1,3,1] + P[1,3,2] = 0
 R125: P[1,3,2] <= 300
 R126: - E[1,3] + P[1,3,3] = 0
 R127: P[1,3,3] <= 300
 R128: X[1,3] + P[1,3,3] <= 840
 R129: P[1,3,4] <= 300
 R130: X[1,3] + P[1,3,4] <= 840
 R131: P[1,3,5] <= 300
 R132: X[1,3] + P[1,3,5] <= 840
 R133: P[2,3,0] <= 300
 R134: - E[2,3] - P[2,3,0] + P[2,3,1] = 0
 R135: P[2,3,1] <= 300
 R136: - E[2,3] - P[2,3,1] + P[2,3,2] = 0
 R137: P[2,3,2] <= 300
 R138: - E[2,3] + P[2,3,3] = 0
 R139: P[2,3,3] <= 300
 R140: X[2,3] + P[2,3,3] <= 840
 R141: P[2,3,4] <= 300
 R142: X[2,3] + P[2,3,4] <= 840
 R143: P[2,3,5] <= 300
 R144: X[2,3] + P[2,3,5] <= 840
 R145: X[0,4] <= 360
 R146: X[1,4] <= 360
 R147: X[2,4] <= 360
 R148: X[0,4] + X[1,4] + X[2,4] >= 768
 R149: P[0,4,0] <= 300
 R150: - E[0,4] - P[0,4,0] + P[0,4,1] = 0
 R151: P[0,4,1] <= 300
 R152: - E[0,4] - P[0,4,1] + P[0,4,2] = 0
 R153: P[0,4,2] <= 300
 R154: - E[0,4] - P[0,4,2] + P[0,4,3] = 0
 R155: P[0,4,3] <= 300
 R156: - E[0,4] + P[0,4,4] = 0
 R157: P[0,4,4] <= 300
 R158: X[0,4] + P[0,4,4] <= 1068
 R159: P[0,4,5] <= 300
 R160: X[0,4] + P[0,4,5] <= 1068
 R161: P[1,4,0] <= 300
 R162: - E[1,4] - P[1,4,0] + P[1,4,1] = 0
 R163: P[1,4,1] <= 300
 R164: - E[1,4] - P[1,4,1] + P[1,4,2] = 0
 R165: P[1,4,2] <= 300
 R166: - E[1,4] - P[1,4,2] + P[1,4,3] = 0
 R167: P[1,4,3] <= 300
 R168: - E[1,4] + P[1,4,4] = 0
 R169: P[1,4,4] <= 300
 R170: X[1,4] + P[1,4,4] <= 1068
 R171: P[1,4,5] <= 300
 R172: X[1,4] + P[1,4,5] <= 1068
 R173: P[2,4,0] <= 300
 R174: - E[2,4] - P[2,4,0] + P[2,4,1] = 0
 R175: P[2,4,1] <= 300
 R176: - E[2,4] - P[2,4,1] + P[2,4,2] = 0
 R177: P[2,4,2] <= 300
 R178: - E[2,4] - P[2,4,2] + P[2,4,3] = 0
 R179: P[2,4,3] <= 300
 R180: - E[2,4] + P[2,4,4] = 0
 R181: P[2,4,4] <= 300
 R182: X[2,4] + P[2,4,4] <= 1068
 R183: P[2,4,5] <= 300
 R184: X[2,4] + P[2,4,5] <= 1068
 R185: X[0,5] <= 540
 R186: X[1,5] <= 360
 R187: X[2,5] <= 360
 R188: X[0,5] + X[1,5] + X[2,5] >= 750
 R189: P[0,5,0] <= 300
 R190: - E[0,5] - P[0,5,0] + P[0,5,1] = 0
 R191: P[0,5,1] <= 300
 R192: - E[0,5] - P[0,5,1] + P[0,5,2] = 0
 R193: P[0,5,2] <= 300
 R194: - E[0,5] - P[0,5,2] + P[0,5,3] = 0
 R195: P[0,5,3] <= 300
 R196: - E[0,5] - P[0,5,3] + P[0,5,4] = 0
 R197: P[0,5,4] <= 300
 R198: - E[0,5] + P[0,5,5] = 0
 R199: P[0,5,5] <= 300
 R200: X[0,5] + P[0,5,5] <= 1050
 R201: P[1,5,0] <= 300
 R202: - E[1,5] - P[1,5,0] + P[1,5,1] = 0
 R203: P[1,5,1] <= 300
 R204: - E[1,5] - P[1,5,1] + P[1,5,2] = 0
 R205: P[1,5,2] <= 300
 R206: - E[1,5] - P[1,5,2] + P[1,5,3] = 0
 R207: P[1,5,3] <= 300
 R208: - E[1,5] - P[1,5,3] + P[1,5,4] = 0
 R209: P[1,5,4] <= 300
 R210: - E[1,5] + P[1,5,5] = 0
 R211: P[1,5,5] <= 300
 R212: X[1,5] + P[1,5,5] <= 1050
 R213: P[2,5,0] <= 300
 R214: - E[2,5] - P[2,5,0] + P[2,5,1] = 0
 R215: P[2,5,1] <= 300
 R216: - E[2,5] - P[2,5,1] + P[2,5,2] = 0
 R217: P[2,5,2] <= 300
 R218: - E[2,5] - P[2,5,2] + P[2,5,3] = 0
 R219: P[2,5,3] <= 300
 R220: - E[2,5] - P[2,5,3] + P[2,5,4] = 0
 R221: P[2,5,4] <= 300
 R222: - E[2,5] + P[2,5,5] = 0
 R223: P[2,5,5] <= 300
 R224: X[2,5] + P[2,5,5] <= 1050
Bounds
End
